c Reading file experiments/california_census/mmc_encoding/mmc_cegqs_1.dimacs
c Building 1-fold quantitative self-composition...
c ind 147  149  150  151  164  166  167  168  169  170  171  172  173  174  175  176  180  181 0
c previous ind: 529  530  533  534  537  538  541  542  545  546  549  550  553  554  557  558  561  562  563  566  567  570  571  574  575  578  579  582  583  586  587  590  591  594  595  598  599  600  602  603  604 0
c This is a CNF SAT formula in the DIMACS CNF format,
c produced with the bc2cnf translator by Tommi Junttila;
c see http://users.ics.aalto.fi/tjunttil/circuits/index.html
c phi_Gamma_det <-> 1
c phi_Gamma <-> 1
c phi_T_transitions <-> 1
c phi_T <-> 1
c phi_sim_leaves <-> 1
c phi_sim_transition <-> 1
c phi_sim <-> 1
c FORMULA <-> 1
c pi_0 <-> 2
c pi_Class_2 <-> 93
c phi_T_transitions_consistency <-> 94
c tau_0_3_Class_3 <-> 147
c tau_0_3_Class_2 <-> 149
c tau_0_3_Class_1 <-> 150
c tau_0_3_Class_0 <-> 151
c tau_0_2_Class_3 <-> 164
c tau_0_2_Class_2 <-> 166
c tau_0_2_Class_1 <-> 167
c tau_0_2_Class_0 <-> 168
c tau_0_1_Class_3 <-> 169
c tau_0_1_Class_2 <-> 170
c tau_0_1_Class_1 <-> 171
c tau_0_1_Class_0 <-> 172
c tau_0_0_Class_3 <-> 173
c tau_0_0_Class_2 <-> 174
c tau_0_0_Class_1 <-> 175
c tau_0_0_Class_0 <-> 176
c phi_T_feature_det <-> 177
c lam_0_median_income <-> 180
c lam_0_population <-> 181
c phi_Gamma_val <-> 527
c median_income_P808 <-> 529
c population_P2681500 <-> 530
c median_income_P791 <-> 533
c population_P3462600 <-> 534
c median_income_P547 <-> 537
c population_P3325100 <-> 538
c median_income_P797 <-> 541
c population_P3297600 <-> 542
c median_income_P230 <-> 545
c population_P539300 <-> 546
c median_income_P947 <-> 549
c population_P3474000 <-> 550
c median_income_P913 <-> 553
c population_P165100 <-> 554
c median_income_P560 <-> 557
c population_P3170300 <-> 558
c pi_Class_3 <-> 561
c Class_P300 <-> 561
c median_income_P864 <-> 562
c population_P44400 <-> 563
c median_income_P85 <-> 566
c population_P2632300 <-> 567
c median_income_P585 <-> 570
c population_P1339700 <-> 571
c median_income_P1182 <-> 574
c population_P2201400 <-> 575
c median_income_P774 <-> 578
c population_P3309500 <-> 579
c median_income_P1330 <-> 582
c population_P342100 <-> 583
c median_income_P1011 <-> 586
c population_P1075000 <-> 587
c median_income_P741 <-> 590
c population_P1607400 <-> 591
c median_income_P893 <-> 594
c population_P2683700 <-> 595
c pi_Class_1 <-> 598
c Class_P100 <-> 598
c median_income_P268 <-> 599
c population_P3227600 <-> 600
c pi_Class_0 <-> 602
c Class_P0 <-> 602
c median_income_P513 <-> 603
c population_P3534100 <-> 604
c ind 529 530 533 534 537 538 541 542 545 546 549 550 553 554 557 558 561 562 563 566 567 570 571 574 575 578 579 582 583 586 587 590 591 594 595 598 599 600 602 603 604 0
p cnf 606 1675
1 0
2 -3 0
2 -10 0
-2 10 3 0
2 0
-3 4 0
-3 52 0
3 -52 -4 0
-4 5 0
-4 180 0
4 -180 -5 0
5 -6 0
5 -75 0
-5 75 6 0
6 -7 0
6 -48 0
-6 48 7 0
7 -8 0
7 -81 0
-7 81 8 0
8 -9 0
8 -83 0
-8 83 9 0
9 -34 0
9 -90 0
-9 90 34 0
10 -11 0
10 -24 0
-10 24 11 0
-11 12 0
-11 63 0
11 -63 -12 0
-12 13 0
-12 180 0
12 -180 -13 0
13 -14 0
13 -71 0
-13 71 14 0
14 -15 0
14 -73 0
-14 73 15 0
15 -16 0
15 -77 0
-15 77 16 0
16 -17 0
16 -79 0
-16 79 17 0
17 -18 0
17 -60 0
-17 60 18 0
18 -19 0
18 -61 0
-18 61 19 0
19 -20 0
19 -85 0
-19 85 20 0
20 -21 0
20 -87 0
-20 87 21 0
21 -22 0
21 -49 0
-21 49 22 0
22 -23 0
22 -36 0
-22 36 23 0
23 -37 0
23 -89 0
-23 89 37 0
24 -25 0
24 -38 0
-24 38 25 0
-25 26 0
-25 32 0
25 -32 -26 0
-26 27 0
-26 28 0
26 -28 -27 0
27 147 0
27 -561 0
-27 561 -147 0
-28 -149 0
-28 29 0
28 -29 149 0
-29 30 0
-29 31 0
29 -31 -30 0
30 150 0
30 -598 0
-30 598 -150 0
31 151 0
31 -602 0
-31 602 -151 0
-32 33 0
-32 181 0
32 -181 -33 0
33 -34 0
33 -35 0
-33 35 34 0
-34 570 0
-34 571 0
34 -571 -570 0
35 -36 0
35 -37 0
-35 37 36 0
-36 586 0
-36 587 0
36 -587 -586 0
-37 590 0
-37 591 0
37 -591 -590 0
38 -39 0
38 -50 0
-38 50 39 0
-39 40 0
-39 46 0
39 -46 -40 0
-40 41 0
-40 42 0
40 -42 -41 0
41 164 0
41 -561 0
-41 561 -164 0
-42 -166 0
-42 43 0
42 -43 166 0
-43 44 0
-43 45 0
43 -45 -44 0
44 167 0
44 -598 0
-44 598 -167 0
45 168 0
45 -602 0
-45 602 -168 0
-46 47 0
-46 181 0
46 -181 -47 0
47 -48 0
47 -49 0
-47 49 48 0
-48 545 0
-48 546 0
48 -546 -545 0
-49 582 0
-49 583 0
49 -583 -582 0
50 -51 0
50 -62 0
-50 62 51 0
-51 52 0
-51 58 0
51 -58 -52 0
-52 53 0
-52 54 0
52 -54 -53 0
53 169 0
53 -561 0
-53 561 -169 0
-54 -170 0
-54 55 0
54 -55 170 0
-55 56 0
-55 57 0
55 -57 -56 0
56 171 0
56 -598 0
-56 598 -171 0
57 172 0
57 -602 0
-57 602 -172 0
-58 59 0
-58 181 0
58 -181 -59 0
59 -60 0
59 -61 0
-59 61 60 0
-60 553 0
-60 554 0
60 -554 -553 0
-61 562 0
-61 563 0
61 -563 -562 0
-62 63 0
-62 69 0
62 -69 -63 0
-63 64 0
-63 65 0
63 -65 -64 0
64 173 0
64 -561 0
-64 561 -173 0
-65 -174 0
-65 66 0
65 -66 174 0
-66 67 0
-66 68 0
66 -68 -67 0
67 175 0
67 -598 0
-67 598 -175 0
68 176 0
68 -602 0
-68 602 -176 0
-69 70 0
-69 181 0
69 -181 -70 0
70 -71 0
70 -72 0
-70 72 71 0
-71 529 0
-71 530 0
71 -530 -529 0
72 -73 0
72 -74 0
-72 74 73 0
-73 533 0
-73 534 0
73 -534 -533 0
74 -75 0
74 -76 0
-74 76 75 0
-75 537 0
-75 538 0
75 -538 -537 0
76 -77 0
76 -78 0
-76 78 77 0
-77 541 0
-77 542 0
77 -542 -541 0
78 -79 0
78 -80 0
-78 80 79 0
-79 549 0
-79 550 0
79 -550 -549 0
80 -81 0
80 -82 0
-80 82 81 0
-81 557 0
-81 558 0
81 -558 -557 0
82 -83 0
82 -84 0
-82 84 83 0
-83 566 0
-83 567 0
83 -567 -566 0
84 -85 0
84 -86 0
-84 86 85 0
-85 574 0
-85 575 0
85 -575 -574 0
86 -87 0
86 -88 0
-86 88 87 0
-87 578 0
-87 579 0
87 -579 -578 0
88 -89 0
88 -90 0
-88 90 89 0
-89 594 0
-89 595 0
89 -595 -594 0
90 -91 0
90 -92 0
-90 92 91 0
-91 599 0
-91 600 0
91 -600 -599 0
-92 603 0
-92 604 0
92 -604 -603 0
-93 0
94 180 0
94 -95 0
-94 95 -180 0
94 0
-95 -147 0
-95 96 0
95 -96 147 0
-96 -149 0
-96 97 0
96 -97 149 0
-97 -150 0
-97 98 0
97 -98 150 0
-98 -151 0
-98 99 0
98 -99 151 0
-99 -164 0
-99 100 0
99 -100 164 0
-100 -166 0
-100 101 0
100 -101 166 0
-101 -167 0
-101 -168 0
101 168 167 0
102 180 0
102 -103 0
-102 103 -180 0
102 0
-103 104 0
-103 118 0
103 -118 -104 0
104 -105 0
104 -107 0
-104 107 105 0
-105 106 0
-105 169 0
105 -169 -106 0
-106 -170 0
-106 110 0
106 -110 170 0
107 -108 0
107 -111 0
-107 111 108 0
-108 109 0
-108 170 0
108 -170 -109 0
-109 -169 0
-109 110 0
109 -110 169 0
-110 -171 0
-110 -172 0
110 172 171 0
111 -112 0
111 -115 0
-111 115 112 0
-112 113 0
-112 171 0
112 -171 -113 0
-113 -169 0
-113 114 0
113 -114 169 0
-114 -170 0
-114 -172 0
114 172 170 0
-115 116 0
-115 172 0
115 -172 -116 0
-116 -169 0
-116 117 0
116 -117 169 0
-117 -170 0
-117 -171 0
117 171 170 0
118 -119 0
118 -121 0
-118 121 119 0
-119 120 0
-119 173 0
119 -173 -120 0
-120 -174 0
-120 124 0
120 -124 174 0
121 -122 0
121 -125 0
-121 125 122 0
-122 123 0
-122 174 0
122 -174 -123 0
-123 -173 0
-123 124 0
123 -124 173 0
-124 -175 0
-124 -176 0
124 176 175 0
125 -126 0
125 -129 0
-125 129 126 0
-126 127 0
-126 175 0
126 -175 -127 0
-127 -173 0
-127 128 0
127 -128 173 0
-128 -174 0
-128 -176 0
128 176 174 0
-129 130 0
-129 176 0
129 -176 -130 0
-130 -173 0
-130 131 0
130 -131 173 0
-131 -174 0
-131 -175 0
131 175 174 0
132 181 0
132 -133 0
-132 133 -181 0
132 0
-133 134 0
-133 152 0
133 -152 -134 0
134 -135 0
134 -137 0
-134 137 135 0
-135 136 0
-135 147 0
135 -147 -136 0
-136 -149 0
-136 140 0
136 -140 149 0
137 -138 0
137 -141 0
-137 141 138 0
-138 139 0
-138 149 0
138 -149 -139 0
-139 -147 0
-139 140 0
139 -140 147 0
-140 -150 0
-140 -151 0
140 151 150 0
141 -142 0
141 -145 0
-141 145 142 0
-142 143 0
-142 150 0
142 -150 -143 0
-143 -147 0
-143 144 0
143 -144 147 0
-144 -149 0
-144 -151 0
144 151 149 0
-145 146 0
-145 151 0
145 -151 -146 0
-146 -147 0
-146 148 0
146 -148 147 0
-148 -149 0
-148 -150 0
148 150 149 0
-152 103 0
-152 153 0
152 -153 -103 0
153 -154 0
153 -155 0
-153 155 154 0
-154 100 0
-154 164 0
154 -164 -100 0
155 -156 0
155 -158 0
-155 158 156 0
-156 157 0
-156 166 0
156 -166 -157 0
-157 -164 0
-157 101 0
157 -101 164 0
158 -159 0
158 -162 0
-158 162 159 0
-159 160 0
-159 167 0
159 -167 -160 0
-160 -164 0
-160 161 0
160 -161 164 0
-161 -166 0
-161 -168 0
161 168 166 0
-162 163 0
-162 168 0
162 -168 -163 0
-163 -164 0
-163 165 0
163 -165 164 0
-165 -166 0
-165 -167 0
165 167 166 0
177 -178 0
177 -179 0
-177 179 178 0
177 0
-178 -181 0
-178 180 0
178 -180 181 0
-179 -180 0
-179 181 0
179 -181 180 0
182 598 0
182 561 0
-182 -561 -598 0
182 0
183 602 0
183 -184 0
-183 184 -602 0
183 0
-184 -598 0
-184 -561 0
184 561 598 0
185 533 0
185 529 0
-185 -529 -533 0
185 0
186 537 0
186 -187 0
-186 187 -537 0
186 0
-187 -533 0
-187 -529 0
187 529 533 0
188 541 0
188 -189 0
-188 189 -541 0
188 0
-189 -529 0
-189 190 0
189 -190 529 0
-190 -533 0
-190 -537 0
190 537 533 0
191 545 0
191 -192 0
-191 192 -545 0
191 0
-192 -529 0
-192 193 0
192 -193 529 0
-193 -533 0
-193 194 0
193 -194 533 0
-194 -537 0
-194 -541 0
194 541 537 0
195 549 0
195 -196 0
-195 196 -549 0
195 0
-196 -529 0
-196 197 0
196 -197 529 0
-197 -533 0
-197 198 0
197 -198 533 0
-198 -537 0
-198 199 0
198 -199 537 0
-199 -541 0
-199 -545 0
199 545 541 0
200 553 0
200 -201 0
-200 201 -553 0
200 0
-201 -529 0
-201 202 0
201 -202 529 0
-202 -533 0
-202 203 0
202 -203 533 0
-203 -537 0
-203 204 0
203 -204 537 0
-204 -541 0
-204 205 0
204 -205 541 0
-205 -545 0
-205 -549 0
205 549 545 0
206 557 0
206 -207 0
-206 207 -557 0
206 0
-207 -529 0
-207 208 0
207 -208 529 0
-208 -533 0
-208 209 0
208 -209 533 0
-209 -537 0
-209 210 0
209 -210 537 0
-210 -541 0
-210 211 0
210 -211 541 0
-211 -545 0
-211 212 0
211 -212 545 0
-212 -549 0
-212 -553 0
212 553 549 0
213 562 0
213 -214 0
-213 214 -562 0
213 0
-214 -529 0
-214 215 0
214 -215 529 0
-215 -533 0
-215 216 0
215 -216 533 0
-216 -537 0
-216 217 0
216 -217 537 0
-217 -541 0
-217 218 0
217 -218 541 0
-218 -545 0
-218 219 0
218 -219 545 0
-219 -549 0
-219 220 0
219 -220 549 0
-220 -553 0
-220 -557 0
220 557 553 0
221 566 0
221 -222 0
-221 222 -566 0
221 0
-222 -529 0
-222 223 0
222 -223 529 0
-223 -533 0
-223 224 0
223 -224 533 0
-224 -537 0
-224 225 0
224 -225 537 0
-225 -541 0
-225 226 0
225 -226 541 0
-226 -545 0
-226 227 0
226 -227 545 0
-227 -549 0
-227 228 0
227 -228 549 0
-228 -553 0
-228 229 0
228 -229 553 0
-229 -557 0
-229 -562 0
229 562 557 0
230 570 0
230 -231 0
-230 231 -570 0
230 0
-231 -529 0
-231 232 0
231 -232 529 0
-232 -533 0
-232 233 0
232 -233 533 0
-233 -537 0
-233 234 0
233 -234 537 0
-234 -541 0
-234 235 0
234 -235 541 0
-235 -545 0
-235 236 0
235 -236 545 0
-236 -549 0
-236 237 0
236 -237 549 0
-237 -553 0
-237 238 0
237 -238 553 0
-238 -557 0
-238 239 0
238 -239 557 0
-239 -562 0
-239 -566 0
239 566 562 0
240 574 0
240 -241 0
-240 241 -574 0
240 0
-241 -529 0
-241 242 0
241 -242 529 0
-242 -533 0
-242 243 0
242 -243 533 0
-243 -537 0
-243 244 0
243 -244 537 0
-244 -541 0
-244 245 0
244 -245 541 0
-245 -545 0
-245 246 0
245 -246 545 0
-246 -549 0
-246 247 0
246 -247 549 0
-247 -553 0
-247 248 0
247 -248 553 0
-248 -557 0
-248 249 0
248 -249 557 0
-249 -562 0
-249 250 0
249 -250 562 0
-250 -566 0
-250 -570 0
250 570 566 0
251 578 0
251 -252 0
-251 252 -578 0
251 0
-252 -529 0
-252 253 0
252 -253 529 0
-253 -533 0
-253 254 0
253 -254 533 0
-254 -537 0
-254 255 0
254 -255 537 0
-255 -541 0
-255 256 0
255 -256 541 0
-256 -545 0
-256 257 0
256 -257 545 0
-257 -549 0
-257 258 0
257 -258 549 0
-258 -553 0
-258 259 0
258 -259 553 0
-259 -557 0
-259 260 0
259 -260 557 0
-260 -562 0
-260 261 0
260 -261 562 0
-261 -566 0
-261 262 0
261 -262 566 0
-262 -570 0
-262 -574 0
262 574 570 0
263 582 0
263 -264 0
-263 264 -582 0
263 0
-264 -529 0
-264 265 0
264 -265 529 0
-265 -533 0
-265 266 0
265 -266 533 0
-266 -537 0
-266 267 0
266 -267 537 0
-267 -541 0
-267 268 0
267 -268 541 0
-268 -545 0
-268 269 0
268 -269 545 0
-269 -549 0
-269 270 0
269 -270 549 0
-270 -553 0
-270 271 0
270 -271 553 0
-271 -557 0
-271 272 0
271 -272 557 0
-272 -562 0
-272 273 0
272 -273 562 0
-273 -566 0
-273 274 0
273 -274 566 0
-274 -570 0
-274 275 0
274 -275 570 0
-275 -574 0
-275 -578 0
275 578 574 0
276 586 0
276 -277 0
-276 277 -586 0
276 0
-277 -529 0
-277 278 0
277 -278 529 0
-278 -533 0
-278 279 0
278 -279 533 0
-279 -537 0
-279 280 0
279 -280 537 0
-280 -541 0
-280 281 0
280 -281 541 0
-281 -545 0
-281 282 0
281 -282 545 0
-282 -549 0
-282 283 0
282 -283 549 0
-283 -553 0
-283 284 0
283 -284 553 0
-284 -557 0
-284 285 0
284 -285 557 0
-285 -562 0
-285 286 0
285 -286 562 0
-286 -566 0
-286 287 0
286 -287 566 0
-287 -570 0
-287 288 0
287 -288 570 0
-288 -574 0
-288 289 0
288 -289 574 0
-289 -578 0
-289 -582 0
289 582 578 0
290 590 0
290 -291 0
-290 291 -590 0
290 0
-291 -529 0
-291 292 0
291 -292 529 0
-292 -533 0
-292 293 0
292 -293 533 0
-293 -537 0
-293 294 0
293 -294 537 0
-294 -541 0
-294 295 0
294 -295 541 0
-295 -545 0
-295 296 0
295 -296 545 0
-296 -549 0
-296 297 0
296 -297 549 0
-297 -553 0
-297 298 0
297 -298 553 0
-298 -557 0
-298 299 0
298 -299 557 0
-299 -562 0
-299 300 0
299 -300 562 0
-300 -566 0
-300 301 0
300 -301 566 0
-301 -570 0
-301 302 0
301 -302 570 0
-302 -574 0
-302 303 0
302 -303 574 0
-303 -578 0
-303 304 0
303 -304 578 0
-304 -582 0
-304 -586 0
304 586 582 0
305 594 0
305 -306 0
-305 306 -594 0
305 0
-306 -529 0
-306 307 0
306 -307 529 0
-307 -533 0
-307 308 0
307 -308 533 0
-308 -537 0
-308 309 0
308 -309 537 0
-309 -541 0
-309 310 0
309 -310 541 0
-310 -545 0
-310 311 0
310 -311 545 0
-311 -549 0
-311 312 0
311 -312 549 0
-312 -553 0
-312 313 0
312 -313 553 0
-313 -557 0
-313 314 0
313 -314 557 0
-314 -562 0
-314 315 0
314 -315 562 0
-315 -566 0
-315 316 0
315 -316 566 0
-316 -570 0
-316 317 0
316 -317 570 0
-317 -574 0
-317 318 0
317 -318 574 0
-318 -578 0
-318 319 0
318 -319 578 0
-319 -582 0
-319 320 0
319 -320 582 0
-320 -586 0
-320 -590 0
320 590 586 0
321 599 0
321 -322 0
-321 322 -599 0
321 0
-322 -529 0
-322 323 0
322 -323 529 0
-323 -533 0
-323 324 0
323 -324 533 0
-324 -537 0
-324 325 0
324 -325 537 0
-325 -541 0
-325 326 0
325 -326 541 0
-326 -545 0
-326 327 0
326 -327 545 0
-327 -549 0
-327 328 0
327 -328 549 0
-328 -553 0
-328 329 0
328 -329 553 0
-329 -557 0
-329 330 0
329 -330 557 0
-330 -562 0
-330 331 0
330 -331 562 0
-331 -566 0
-331 332 0
331 -332 566 0
-332 -570 0
-332 333 0
332 -333 570 0
-333 -574 0
-333 334 0
333 -334 574 0
-334 -578 0
-334 335 0
334 -335 578 0
-335 -582 0
-335 336 0
335 -336 582 0
-336 -586 0
-336 337 0
336 -337 586 0
-337 -590 0
-337 -594 0
337 594 590 0
338 603 0
338 -339 0
-338 339 -603 0
338 0
-339 -529 0
-339 340 0
339 -340 529 0
-340 -533 0
-340 341 0
340 -341 533 0
-341 -537 0
-341 342 0
341 -342 537 0
-342 -541 0
-342 343 0
342 -343 541 0
-343 -545 0
-343 344 0
343 -344 545 0
-344 -549 0
-344 345 0
344 -345 549 0
-345 -553 0
-345 346 0
345 -346 553 0
-346 -557 0
-346 347 0
346 -347 557 0
-347 -562 0
-347 348 0
347 -348 562 0
-348 -566 0
-348 349 0
348 -349 566 0
-349 -570 0
-349 350 0
349 -350 570 0
-350 -574 0
-350 351 0
350 -351 574 0
-351 -578 0
-351 352 0
351 -352 578 0
-352 -582 0
-352 353 0
352 -353 582 0
-353 -586 0
-353 354 0
353 -354 586 0
-354 -590 0
-354 355 0
354 -355 590 0
-355 -594 0
-355 -599 0
355 599 594 0
356 534 0
356 530 0
-356 -530 -534 0
356 0
357 538 0
357 -358 0
-357 358 -538 0
357 0
-358 -534 0
-358 -530 0
358 530 534 0
359 542 0
359 -360 0
-359 360 -542 0
359 0
-360 -530 0
-360 361 0
360 -361 530 0
-361 -534 0
-361 -538 0
361 538 534 0
362 546 0
362 -363 0
-362 363 -546 0
362 0
-363 -530 0
-363 364 0
363 -364 530 0
-364 -534 0
-364 365 0
364 -365 534 0
-365 -538 0
-365 -542 0
365 542 538 0
366 550 0
366 -367 0
-366 367 -550 0
366 0
-367 -530 0
-367 368 0
367 -368 530 0
-368 -534 0
-368 369 0
368 -369 534 0
-369 -538 0
-369 370 0
369 -370 538 0
-370 -542 0
-370 -546 0
370 546 542 0
371 554 0
371 -372 0
-371 372 -554 0
371 0
-372 -530 0
-372 373 0
372 -373 530 0
-373 -534 0
-373 374 0
373 -374 534 0
-374 -538 0
-374 375 0
374 -375 538 0
-375 -542 0
-375 376 0
375 -376 542 0
-376 -546 0
-376 -550 0
376 550 546 0
377 558 0
377 -378 0
-377 378 -558 0
377 0
-378 -530 0
-378 379 0
378 -379 530 0
-379 -534 0
-379 380 0
379 -380 534 0
-380 -538 0
-380 381 0
380 -381 538 0
-381 -542 0
-381 382 0
381 -382 542 0
-382 -546 0
-382 383 0
382 -383 546 0
-383 -550 0
-383 -554 0
383 554 550 0
384 563 0
384 -385 0
-384 385 -563 0
384 0
-385 -530 0
-385 386 0
385 -386 530 0
-386 -534 0
-386 387 0
386 -387 534 0
-387 -538 0
-387 388 0
387 -388 538 0
-388 -542 0
-388 389 0
388 -389 542 0
-389 -546 0
-389 390 0
389 -390 546 0
-390 -550 0
-390 391 0
390 -391 550 0
-391 -554 0
-391 -558 0
391 558 554 0
392 567 0
392 -393 0
-392 393 -567 0
392 0
-393 -530 0
-393 394 0
393 -394 530 0
-394 -534 0
-394 395 0
394 -395 534 0
-395 -538 0
-395 396 0
395 -396 538 0
-396 -542 0
-396 397 0
396 -397 542 0
-397 -546 0
-397 398 0
397 -398 546 0
-398 -550 0
-398 399 0
398 -399 550 0
-399 -554 0
-399 400 0
399 -400 554 0
-400 -558 0
-400 -563 0
400 563 558 0
401 571 0
401 -402 0
-401 402 -571 0
401 0
-402 -530 0
-402 403 0
402 -403 530 0
-403 -534 0
-403 404 0
403 -404 534 0
-404 -538 0
-404 405 0
404 -405 538 0
-405 -542 0
-405 406 0
405 -406 542 0
-406 -546 0
-406 407 0
406 -407 546 0
-407 -550 0
-407 408 0
407 -408 550 0
-408 -554 0
-408 409 0
408 -409 554 0
-409 -558 0
-409 410 0
409 -410 558 0
-410 -563 0
-410 -567 0
410 567 563 0
411 575 0
411 -412 0
-411 412 -575 0
411 0
-412 -530 0
-412 413 0
412 -413 530 0
-413 -534 0
-413 414 0
413 -414 534 0
-414 -538 0
-414 415 0
414 -415 538 0
-415 -542 0
-415 416 0
415 -416 542 0
-416 -546 0
-416 417 0
416 -417 546 0
-417 -550 0
-417 418 0
417 -418 550 0
-418 -554 0
-418 419 0
418 -419 554 0
-419 -558 0
-419 420 0
419 -420 558 0
-420 -563 0
-420 421 0
420 -421 563 0
-421 -567 0
-421 -571 0
421 571 567 0
422 579 0
422 -423 0
-422 423 -579 0
422 0
-423 -530 0
-423 424 0
423 -424 530 0
-424 -534 0
-424 425 0
424 -425 534 0
-425 -538 0
-425 426 0
425 -426 538 0
-426 -542 0
-426 427 0
426 -427 542 0
-427 -546 0
-427 428 0
427 -428 546 0
-428 -550 0
-428 429 0
428 -429 550 0
-429 -554 0
-429 430 0
429 -430 554 0
-430 -558 0
-430 431 0
430 -431 558 0
-431 -563 0
-431 432 0
431 -432 563 0
-432 -567 0
-432 433 0
432 -433 567 0
-433 -571 0
-433 -575 0
433 575 571 0
434 583 0
434 -435 0
-434 435 -583 0
434 0
-435 -530 0
-435 436 0
435 -436 530 0
-436 -534 0
-436 437 0
436 -437 534 0
-437 -538 0
-437 438 0
437 -438 538 0
-438 -542 0
-438 439 0
438 -439 542 0
-439 -546 0
-439 440 0
439 -440 546 0
-440 -550 0
-440 441 0
440 -441 550 0
-441 -554 0
-441 442 0
441 -442 554 0
-442 -558 0
-442 443 0
442 -443 558 0
-443 -563 0
-443 444 0
443 -444 563 0
-444 -567 0
-444 445 0
444 -445 567 0
-445 -571 0
-445 446 0
445 -446 571 0
-446 -575 0
-446 -579 0
446 579 575 0
447 587 0
447 -448 0
-447 448 -587 0
447 0
-448 -530 0
-448 449 0
448 -449 530 0
-449 -534 0
-449 450 0
449 -450 534 0
-450 -538 0
-450 451 0
450 -451 538 0
-451 -542 0
-451 452 0
451 -452 542 0
-452 -546 0
-452 453 0
452 -453 546 0
-453 -550 0
-453 454 0
453 -454 550 0
-454 -554 0
-454 455 0
454 -455 554 0
-455 -558 0
-455 456 0
455 -456 558 0
-456 -563 0
-456 457 0
456 -457 563 0
-457 -567 0
-457 458 0
457 -458 567 0
-458 -571 0
-458 459 0
458 -459 571 0
-459 -575 0
-459 460 0
459 -460 575 0
-460 -579 0
-460 -583 0
460 583 579 0
461 591 0
461 -462 0
-461 462 -591 0
461 0
-462 -530 0
-462 463 0
462 -463 530 0
-463 -534 0
-463 464 0
463 -464 534 0
-464 -538 0
-464 465 0
464 -465 538 0
-465 -542 0
-465 466 0
465 -466 542 0
-466 -546 0
-466 467 0
466 -467 546 0
-467 -550 0
-467 468 0
467 -468 550 0
-468 -554 0
-468 469 0
468 -469 554 0
-469 -558 0
-469 470 0
469 -470 558 0
-470 -563 0
-470 471 0
470 -471 563 0
-471 -567 0
-471 472 0
471 -472 567 0
-472 -571 0
-472 473 0
472 -473 571 0
-473 -575 0
-473 474 0
473 -474 575 0
-474 -579 0
-474 475 0
474 -475 579 0
-475 -583 0
-475 -587 0
475 587 583 0
476 595 0
476 -477 0
-476 477 -595 0
476 0
-477 -530 0
-477 478 0
477 -478 530 0
-478 -534 0
-478 479 0
478 -479 534 0
-479 -538 0
-479 480 0
479 -480 538 0
-480 -542 0
-480 481 0
480 -481 542 0
-481 -546 0
-481 482 0
481 -482 546 0
-482 -550 0
-482 483 0
482 -483 550 0
-483 -554 0
-483 484 0
483 -484 554 0
-484 -558 0
-484 485 0
484 -485 558 0
-485 -563 0
-485 486 0
485 -486 563 0
-486 -567 0
-486 487 0
486 -487 567 0
-487 -571 0
-487 488 0
487 -488 571 0
-488 -575 0
-488 489 0
488 -489 575 0
-489 -579 0
-489 490 0
489 -490 579 0
-490 -583 0
-490 491 0
490 -491 583 0
-491 -587 0
-491 -591 0
491 591 587 0
492 600 0
492 -493 0
-492 493 -600 0
492 0
-493 -530 0
-493 494 0
493 -494 530 0
-494 -534 0
-494 495 0
494 -495 534 0
-495 -538 0
-495 496 0
495 -496 538 0
-496 -542 0
-496 497 0
496 -497 542 0
-497 -546 0
-497 498 0
497 -498 546 0
-498 -550 0
-498 499 0
498 -499 550 0
-499 -554 0
-499 500 0
499 -500 554 0
-500 -558 0
-500 501 0
500 -501 558 0
-501 -563 0
-501 502 0
501 -502 563 0
-502 -567 0
-502 503 0
502 -503 567 0
-503 -571 0
-503 504 0
503 -504 571 0
-504 -575 0
-504 505 0
504 -505 575 0
-505 -579 0
-505 506 0
505 -506 579 0
-506 -583 0
-506 507 0
506 -507 583 0
-507 -587 0
-507 508 0
507 -508 587 0
-508 -591 0
-508 -595 0
508 595 591 0
509 604 0
509 -510 0
-509 510 -604 0
509 0
-510 -530 0
-510 511 0
510 -511 530 0
-511 -534 0
-511 512 0
511 -512 534 0
-512 -538 0
-512 513 0
512 -513 538 0
-513 -542 0
-513 514 0
513 -514 542 0
-514 -546 0
-514 515 0
514 -515 546 0
-515 -550 0
-515 516 0
515 -516 550 0
-516 -554 0
-516 517 0
516 -517 554 0
-517 -558 0
-517 518 0
517 -518 558 0
-518 -563 0
-518 519 0
518 -519 563 0
-519 -567 0
-519 520 0
519 -520 567 0
-520 -571 0
-520 521 0
520 -521 571 0
-521 -575 0
-521 522 0
521 -522 575 0
-522 -579 0
-522 523 0
522 -523 579 0
-523 -583 0
-523 524 0
523 -524 583 0
-524 -587 0
-524 525 0
524 -525 587 0
-525 -591 0
-525 526 0
525 -526 591 0
-526 -595 0
-526 -600 0
526 600 595 0
527 -528 0
527 -531 0
-527 531 528 0
527 0
-528 71 0
-528 602 0
528 -602 -71 0
531 -532 0
531 -535 0
-531 535 532 0
-532 73 0
-532 602 0
532 -602 -73 0
535 -536 0
535 -539 0
-535 539 536 0
-536 75 0
-536 602 0
536 -602 -75 0
539 -540 0
539 -543 0
-539 543 540 0
-540 77 0
-540 602 0
540 -602 -77 0
543 -544 0
543 -547 0
-543 547 544 0
-544 48 0
-544 561 0
544 -561 -48 0
547 -548 0
547 -551 0
-547 551 548 0
-548 79 0
-548 602 0
548 -602 -79 0
551 -552 0
551 -555 0
-551 555 552 0
-552 60 0
-552 561 0
552 -561 -60 0
555 -556 0
555 -559 0
-555 559 556 0
-556 81 0
-556 602 0
556 -602 -81 0
559 -560 0
559 -564 0
-559 564 560 0
-560 61 0
-560 561 0
560 -561 -61 0
564 -565 0
564 -568 0
-564 568 565 0
-565 83 0
-565 598 0
565 -598 -83 0
568 -569 0
568 -572 0
-568 572 569 0
-569 34 0
-569 598 0
569 -598 -34 0
572 -573 0
572 -576 0
-572 576 573 0
-573 85 0
-573 598 0
573 -598 -85 0
576 -577 0
576 -580 0
-576 580 577 0
-577 87 0
-577 602 0
577 -602 -87 0
580 -581 0
580 -584 0
-580 584 581 0
-581 49 0
-581 602 0
581 -602 -49 0
584 -585 0
584 -588 0
-584 588 585 0
-585 36 0
-585 598 0
585 -598 -36 0
588 -589 0
588 -592 0
-588 592 589 0
-589 37 0
-589 598 0
589 -598 -37 0
592 -593 0
592 -596 0
-592 596 593 0
-593 89 0
-593 598 0
593 -598 -89 0
596 -597 0
596 -601 0
-596 601 597 0
-597 91 0
-597 598 0
597 -598 -91 0
-601 92 0
-601 602 0
601 -602 -92 0
